L=18;
no=10;
njo=[11,9,11,10,10,11,9,11,11,9];
djo=[16,17,17,15,27,17,24,25,26,29];
trab=[12,18,12,2,3,3,4,6,6,3,3,2,6,2,12,18,4,3,18,6,12,12,3,3,4,2,3,3,3,4,12,3,4,2,3,4,6,3,6,6,2,6,6,3,6,4,4,3,2,2,6,6,6,3,3,2,6,2,6,3,2,2,6,6,12,2,2,4,12,12,3,18,3,3,3,18,6,6,6,6,3,2,6,18,2,6,3,2,6,6,2,3,2,6,6,6,3,6,18,3,6,2,4,3,3,3,6,2,6,2,18,3,18,2,3,6,3,6,6,2,6,2,3,4,3,3,6,3,3,4,2,6,3,2,2,4,6,12,6,6,3,6,2,2,3,6,4,6,6,6,3,2,6,3,2,2,4,6,3,6,6,3,3,6,12,2,6,3,4,12,2,2,6,6,6,12,3,12,12,6,4,2,3,6,2,2,3,2,4,2,3,12,3,3,2,3,3,2,4,6,2,2,3,12,3,4,6,3,6,2,12,3,12];
nprec=15;
prec=[| 4, 18,
      | 12, 23,
      | 19, 27,
      | 22, 34,
      | 24, 35,
      | 26, 38,
      | 28, 39,
      | 32, 49,
      | 57, 65,
      | 62, 68,
      | 71, 78,
      | 73, 83,
      | 82, 91,
      | 89, 94,
      | 91, 99 |];


%%%%%%%%%%%%%%%%%%%%%%%%%%%%%%%%%%%%%%%%%%%%%%%%%%%%%%%%%%%%%%%%%%%%%%
% 10
%
% 11   1  11  16 112
% 12  18  12   2   3   3   4   6   6   3   3   2   6   2  12  18 
%  1   1   1   0   0
%  1   2   2   0   0
%  1   3   3   0   0
%  1   4   4   0   1
%      2   7  18
%  1   5   5   0   0
%  1   6   6   0   0
%  1   7   7   0   0
%  1   8   8   0   0
%  1   9   9   0   0
%  1  10  10   0   0
%  1  11  11   0   0
%
%  9  12  20  17  99
%  4   3  18   6  12  12   3   3   4   2   3   3   3   4  12   3   4 
%  2   1  12   0   1
%      3   3  23
%  2   2  13   0   0
%  2   3  14   0   0
%  2   4  15   0   0
%  2   5  16   0   0
%  2   6  17   0   0
%  2   7  18   1   0
%      1   4   4
%  2   8  19   0   1
%      3   7  27
%  2   9  20   0   0
%
% 11  21  31  17  68
%  2   3   4   6   3   6   6   2   6   6   3   6   4   4   3   2   2 
%  3   1  21   0   0
%  3   2  22   0   1
%      4   3  34
%  3   3  23   1   0
%      2   1  12
%  3   4  24   0   1
%      4   4  35
%  3   5  25   0   0
%  3   6  26   0   1
%      4   7  38
%  3   7  27   1   0
%      2   8  19
%  3   8  28   0   1
%      4   8  39
%  3   9  29   0   0
%  3  10  30   0   0
%  3  11  31   0   0
%
% 10  32  41  15  71
%  6   6   6   3   3   2   6   2   6   3   2   2   6   6  12 
%  4   1  32   0   1
%      5   8  49
%  4   2  33   0   0
%  4   3  34   1   0
%      3   2  22
%  4   4  35   1   0
%      3   4  24
%  4   5  36   0   0
%  4   6  37   0   0
%  4   7  38   1   0
%      3   6  26
%  4   8  39   1   0
%      3   8  28
%  4   9  40   0   0
%  4  10  41   0   0
%
% 10  42  51  27 163
%  2   2   4  12  12   3  18   3   3   3  18   6   6   6   6   3   2   6  18   2   6   3   2   6   6   2   3 
%  5   1  42   0   0
%  5   2  43   0   0
%  5   3  44   0   0
%  5   4  45   0   0
%  5   5  46   0   0
%  5   6  47   0   0
%  5   7  48   0   0
%  5   8  49   1   0
%      4   1  32
%  5   9  50   0   0
%  5  10  51   0   0
%
% 11  52  62  17  85
%  2   6   6   6   3   6  18   3   6   2   4   3   3   3   6   2   6 
%  6   1  52   0   0
%  6   2  53   0   0
%  6   3  54   0   0
%  6   4  55   0   0
%  6   5  56   0   0
%  6   6  57   0   1
%      7   3  65
%  6   7  58   0   0
%  6   8  59   0   0
%  6   9  60   0   0
%  6  10  61   0   0
%  6  11  62   0   1
%      7   6  68
%
%  9  63  71  24 117
%  2  18   3  18   2   3   6   3   6   6   2   6   2   3   4   3   3   6   3   3   4   2   6   3 
%  7   1  63   0   0
%  7   2  64   0   0
%  7   3  65   1   0
%      6   6  57
%  7   4  66   0   0
%  7   5  67   0   0
%  7   6  68   1   0
%      6  11  62
%  7   7  69   0   0
%  7   8  70   0   0
%  7   9  71   0   1
%      8   7  78
%
% 11  72  82  25 110
%  2   2   4   6  12   6   6   3   6   2   2   3   6   4   6   6   6   3   2   6   3   2   2   4   6 
%  8   1  72   0   0
%  8   2  73   0   1
%      9   1  83
%  8   3  74   0   0
%  8   4  75   0   0
%  8   5  76   0   0
%  8   6  77   0   0
%  8   7  78   1   0
%      7   9  71
%  8   8  79   0   0
%  8   9  80   0   0
%  8  10  81   0   0
%  8  11  82   0   1
%      9   9  91
%
% 11  83  93  26 148
%  3   6   6   3   3   6  12   2   6   3   4  12   2   2   6   6   6  12   3  12  12   6   4   2   3   6 
%  9   1  83   1   0
%      8   2  73
%  9   2  84   0   0
%  9   3  85   0   0
%  9   4  86   0   0
%  9   5  87   0   0
%  9   6  88   0   0
%  9   7  89   0   1
%     10   1  94
%  9   8  90   0   0
%  9   9  91   1   1
%      8  11  82
%     10   6  99
%  9  10  92   0   0
%  9  11  93   0   0
%
%  9  94 102  29 126
%  2   2   3   2   4   2   3  12   3   3   2   3   3   2   4   6   2   2   3  12   3   4   6   3   6   2  12   3  12 
% 10   1  94   1   0
%      9   7  89
% 10   2  95   0   0
% 10   3  96   0   0
% 10   4  97   0   0
% 10   5  98   0   0
% 10   6  99   1   0
%      9   9  91
% 10   7 100   0   0
% 10   8 101   0   0
% 10   9 102   0   0
%
%550
